benchmark/results/graph__10-1000-0.10-03_19/error_log/graph__10-1000-0.10-03_19_Quinton_Benders_primal_sub_ERRORLOG.lp
\ This file has been generated by DOcplex
\ ENCODING=ISO-8859-1
\Problem name: Quinton Benders_primal_sub

Maximize
 obj: tau
Subject To
 c1: tau <= 0.000946969697
 c2: y_a0_proc_2 - tau = 0
 c3: y_a0_proc_2 <= 1
 c4: tau <= 0.001317523057
 c5: y_a1_proc_2 - tau = 0
 c6: y_a1_proc_2 <= 1
 c7: tau <= 0.001587301587
 c8: y_a2_proc_0 + y_a2_proc_1 + y_a2_proc_2 - tau = 0
 c9: y_a2_proc_0 <= 0
 c10: y_a2_proc_1 <= 0
 c11: y_a2_proc_2 <= 1
 c12: tau <= 0.001148105626
 c13: y_a3_proc_0 + y_a3_proc_1 + y_a3_proc_2 - tau = 0
 c14: y_a3_proc_0 <= 1
 c15: y_a3_proc_1 <= 0
 c16: y_a3_proc_2 <= 0
 c17: tau <= 0.000962463908
 c18: y_a4_proc_1 - tau = 0
 c19: y_a4_proc_1 <= 1
 c20: tau <= 0.002155172414
 c21: y_a5_proc_0 + y_a5_proc_1 + y_a5_proc_2 - tau = 0
 c22: y_a5_proc_0 <= 0
 c23: y_a5_proc_1 <= 0
 c24: y_a5_proc_2 <= 1
 c25: tau <= 0.001027749229
 c26: y_a6_proc_0 + y_a6_proc_1 + y_a6_proc_2 - tau = 0
 c27: y_a6_proc_0 <= 1
 c28: y_a6_proc_1 <= 0
 c29: y_a6_proc_2 <= 0
 c30: tau <= 0.000892060660
 c31: y_a7_proc_0 + y_a7_proc_2 - tau = 0
 c32: y_a7_proc_0 <= 1
 c33: y_a7_proc_2 <= 0
 c34: tau <= 0.001024590164
 c35: y_a8_proc_0 - tau = 0
 c36: y_a8_proc_0 <= 1
 c37: tau <= 0.001841620626
 c38: y_a9_proc_0 + y_a9_proc_1 + y_a9_proc_2 - tau = 0
 c39: y_a9_proc_0 <= 1
 c40: y_a9_proc_1 <= 0
 c41: y_a9_proc_2 <= 0
 c42: u_a1 - u_a0 - 1056 y_a0_proc_2 >= 0
 c43: u_a2 - u_a1 - 759 y_a1_proc_2 >= 0
 c44: u_a2 - u_a3 - 871 y_a3_proc_0 - 758 y_a3_proc_1 - 892 y_a3_proc_2 >= 0
 c45: u_a1 - u_a4 - 1039 y_a4_proc_1 >= 0
 c46: u_a1 - u_a5 - 1108 y_a5_proc_0 - 410 y_a5_proc_1 - 464 y_a5_proc_2 >= 0
 c47: u_a6 - u_a5 - 1108 y_a5_proc_0 - 410 y_a5_proc_1 - 464 y_a5_proc_2 >= -1
 c48: u_a4 - u_a7 - 1121 y_a7_proc_0 - 789 y_a7_proc_2 >= 0
 c49: u_a4 - u_a8 - 976 y_a8_proc_0 >= 0
 c50: u_a3 - u_a9 - 543 y_a9_proc_0 - 928 y_a9_proc_1 - 1145 y_a9_proc_2 >= -1
 c51: u_a7 - u_a6 - 973 y_a6_proc_0 - 938 y_a6_proc_1 - 911 y_a6_proc_2 >= 0
 c52: u_a5 - u_a6 - 973 y_a6_proc_0 - 938 y_a6_proc_1 - 911 y_a6_proc_2 >= 0
 c53: u_a9 - u_a2 - 1107 y_a2_proc_0 - 760 y_a2_proc_1 - 630 y_a2_proc_2 >= 0
 c54: u_a9 - u_a8 - 976 y_a8_proc_0 >= 0
 c55: u_a4 - u_a6 - 973 y_a6_proc_0 - 938 y_a6_proc_1 - 911 y_a6_proc_2 >= 0
 c56: - 1108 y_a5_proc_0 - 410 y_a5_proc_1 - 464 y_a5_proc_2 >= -1
 c57: u_a1 - u_a0 - 1056 y_a0_proc_2 >= 999999999
 c58: u_a0 - u_a1 - 759 y_a1_proc_2 >= -1000000000
 c59: u_a2 - u_a0 - 1056 y_a0_proc_2 >= 999999999
 c60: u_a0 - u_a2 - 630 y_a2_proc_2 >= -1000000000
 c61: u_a3 - u_a0 - 1056 y_a0_proc_2 >= 999997709
 c62: u_a0 - u_a3 - 892 y_a3_proc_2 >= -1000000000
 c63: u_a5 - u_a0 - 1056 y_a0_proc_2 >= 1146
 c64: u_a0 - u_a5 - 464 y_a5_proc_2 >= -1147
 c65: u_a6 - u_a0 - 1056 y_a0_proc_2 >= 1145
 c66: u_a0 - u_a6 - 911 y_a6_proc_2 >= -3436
 c67: u_a7 - u_a0 - 1056 y_a0_proc_2 >= 999998852
 c68: u_a0 - u_a7 - 789 y_a7_proc_2 >= -1000001143
 c69: u_a9 - u_a0 - 1056 y_a0_proc_2 >= 999997710
 c70: u_a0 - u_a9 - 1145 y_a9_proc_2 >= -1000000001
 c71: u_a2 - u_a1 - 759 y_a1_proc_2 >= 0
 c72: u_a1 - u_a2 - 630 y_a2_proc_2 >= -1
 c73: u_a3 - u_a1 - 759 y_a1_proc_2 >= -2290
 c74: u_a1 - u_a3 - 892 y_a3_proc_2 >= -1
 c75: u_a5 - u_a1 - 759 y_a1_proc_2 >= -999998854
 c76: u_a1 - u_a5 - 464 y_a5_proc_2 >= 999998853
 c77: u_a6 - u_a1 - 759 y_a1_proc_2 >= -1000001145
 c78: u_a1 - u_a6 - 911 y_a6_proc_2 >= 999998854
 c79: u_a7 - u_a1 - 759 y_a1_proc_2 >= -1147
 c80: u_a1 - u_a7 - 789 y_a7_proc_2 >= -1144
 c81: u_a9 - u_a1 - 759 y_a1_proc_2 >= -2290
 c82: u_a1 - u_a9 - 1145 y_a9_proc_2 >= -1
 c83: u_a3 - u_a2 - 1107 y_a2_proc_0 >= -2291
 c84: u_a3 - u_a2 - 760 y_a2_proc_1 >= -3436
 c85: u_a3 - u_a2 - 630 y_a2_proc_2 >= -2291
 c86: u_a2 - u_a3 - 871 y_a3_proc_0 >= 0
 c87: u_a2 - u_a3 - 758 y_a3_proc_1 >= -1145
 c88: u_a2 - u_a3 - 892 y_a3_proc_2 >= 0
 c89: u_a4 - u_a2 - 760 y_a2_proc_1 >= -3436
 c90: u_a2 - u_a4 - 1039 y_a4_proc_1 >= 1145
 c91: u_a5 - u_a2 - 1107 y_a2_proc_0 >= -1000001144
 c92: u_a5 - u_a2 - 760 y_a2_proc_1 >= -1000001144
 c93: u_a5 - u_a2 - 630 y_a2_proc_2 >= -999998854
 c94: u_a2 - u_a5 - 1108 y_a5_proc_0 >= 999996563
 c95: u_a2 - u_a5 - 410 y_a5_proc_1 >= 999996563
 c96: u_a2 - u_a5 - 464 y_a5_proc_2 >= 999998853
 c97: u_a6 - u_a2 - 1107 y_a2_proc_0 >= -999998855
 c98: u_a6 - u_a2 - 760 y_a2_proc_1 >= -1000000000
 c99: u_a6 - u_a2 - 630 y_a2_proc_2 >= -999998855
 c100: u_a2 - u_a6 - 973 y_a6_proc_0 >= 999996564
 c101: u_a2 - u_a6 - 938 y_a6_proc_1 >= 999995419
 c102: u_a2 - u_a6 - 911 y_a6_proc_2 >= 999996564
 c103: u_a7 - u_a2 - 1107 y_a2_proc_0 >= -3437
 c104: u_a7 - u_a2 - 630 y_a2_proc_2 >= -3437
 c105: u_a2 - u_a7 - 1121 y_a7_proc_0 >= 1146
 c106: u_a2 - u_a7 - 789 y_a7_proc_2 >= 1146
 c107: u_a8 - u_a2 - 1107 y_a2_proc_0 >= -1000001145
 c108: u_a2 - u_a8 - 976 y_a8_proc_0 >= 999998854
 c109: u_a9 - u_a2 - 1107 y_a2_proc_0 >= -2290
 c110: u_a9 - u_a2 - 760 y_a2_proc_1 >= -3435
 c111: u_a9 - u_a2 - 630 y_a2_proc_2 >= -2290
 c112: u_a2 - u_a9 - 543 y_a9_proc_0 >= -1
 c113: u_a2 - u_a9 - 928 y_a9_proc_1 >= -1146
 c114: u_a2 - u_a9 - 1145 y_a9_proc_2 >= -1
 c115: u_a4 - u_a3 - 758 y_a3_proc_1 >= -3436
 c116: u_a3 - u_a4 - 1039 y_a4_proc_1 >= 1145
 c117: u_a5 - u_a3 - 871 y_a3_proc_0 >= -1000001144
 c118: u_a5 - u_a3 - 758 y_a3_proc_1 >= -1000002289
 c119: u_a5 - u_a3 - 892 y_a3_proc_2 >= -1000001144
 c120: u_a3 - u_a5 - 1108 y_a5_proc_0 >= 999998853
 c121: u_a3 - u_a5 - 410 y_a5_proc_1 >= 999997708
 c122: u_a3 - u_a5 - 464 y_a5_proc_2 >= 999998853
 c123: u_a6 - u_a3 - 871 y_a3_proc_0 >= -999998855
 c124: u_a6 - u_a3 - 758 y_a3_proc_1 >= -1000001145
 c125: u_a6 - u_a3 - 892 y_a3_proc_2 >= -1000001145
 c126: u_a3 - u_a6 - 973 y_a6_proc_0 >= 999998854
 c127: u_a3 - u_a6 - 938 y_a6_proc_1 >= 999996564
 c128: u_a3 - u_a6 - 911 y_a6_proc_2 >= 999996564
 c129: u_a7 - u_a3 - 871 y_a3_proc_0 >= -1147
 c130: u_a7 - u_a3 - 892 y_a3_proc_2 >= -3437
 c131: u_a3 - u_a7 - 1121 y_a7_proc_0 >= 1146
 c132: u_a3 - u_a7 - 789 y_a7_proc_2 >= -1144
 c133: u_a8 - u_a3 - 871 y_a3_proc_0 >= -1000000000
 c134: u_a3 - u_a8 - 976 y_a8_proc_0 >= 999999999
 c135: u_a9 - u_a3 - 871 y_a3_proc_0 >= 0
 c136: u_a9 - u_a3 - 758 y_a3_proc_1 >= -2290
 c137: u_a9 - u_a3 - 892 y_a3_proc_2 >= -2290
 c138: u_a3 - u_a9 - 543 y_a9_proc_0 >= -1
 c139: u_a3 - u_a9 - 928 y_a9_proc_1 >= -2291
 c140: u_a3 - u_a9 - 1145 y_a9_proc_2 >= -2291
 c141: u_a5 - u_a4 - 1039 y_a4_proc_1 >= -999999998
 c142: u_a4 - u_a5 - 410 y_a5_proc_1 >= 999997707
 c143: u_a6 - u_a4 - 1039 y_a4_proc_1 >= -999999999
 c144: u_a4 - u_a6 - 938 y_a6_proc_1 >= 999997708
 c145: u_a9 - u_a4 - 1039 y_a4_proc_1 >= -1047
 c146: u_a4 - u_a9 - 928 y_a9_proc_1 >= -1244
 c147: u_a6 - u_a5 - 1108 y_a5_proc_0 >= -2291
 c148: u_a6 - u_a5 - 410 y_a5_proc_1 >= -3436
 c149: u_a6 - u_a5 - 464 y_a5_proc_2 >= -2291
 c150: u_a5 - u_a6 - 973 y_a6_proc_0 >= 0
 c151: u_a5 - u_a6 - 938 y_a6_proc_1 >= -1145
 c152: u_a5 - u_a6 - 911 y_a6_proc_2 >= 0
 c153: u_a7 - u_a5 - 1108 y_a5_proc_0 >= 999995416
 c154: u_a7 - u_a5 - 464 y_a5_proc_2 >= 999995416
 c155: u_a5 - u_a7 - 1121 y_a7_proc_0 >= -999997707
 c156: u_a5 - u_a7 - 789 y_a7_proc_2 >= -999997707
 c157: u_a8 - u_a5 - 1108 y_a5_proc_0 >= -1147
 c158: u_a5 - u_a8 - 976 y_a8_proc_0 >= -1144
 c159: u_a9 - u_a5 - 1108 y_a5_proc_0 >= 999996564
 c160: u_a9 - u_a5 - 410 y_a5_proc_1 >= 999995419
 c161: u_a9 - u_a5 - 464 y_a5_proc_2 >= 999996564
 c162: u_a5 - u_a9 - 543 y_a9_proc_0 >= -999998855
 c163: u_a5 - u_a9 - 928 y_a9_proc_1 >= -1000000000
 c164: u_a5 - u_a9 - 1145 y_a9_proc_2 >= -999998855
 c165: u_a7 - u_a6 - 973 y_a6_proc_0 >= 999997707
 c166: u_a7 - u_a6 - 911 y_a6_proc_2 >= 999995417
 c167: u_a6 - u_a7 - 1121 y_a7_proc_0 >= -999997708
 c168: u_a6 - u_a7 - 789 y_a7_proc_2 >= -999999998
 c169: u_a8 - u_a6 - 973 y_a6_proc_0 >= -1146
 c170: u_a6 - u_a8 - 976 y_a8_proc_0 >= 1145
 c171: u_a9 - u_a6 - 973 y_a6_proc_0 >= 999998854
 c172: u_a9 - u_a6 - 938 y_a6_proc_1 >= 999996564
 c173: u_a9 - u_a6 - 911 y_a6_proc_2 >= 999996564
 c174: u_a6 - u_a9 - 543 y_a9_proc_0 >= -999998855
 c175: u_a6 - u_a9 - 928 y_a9_proc_1 >= -1000001145
 c176: u_a6 - u_a9 - 1145 y_a9_proc_2 >= -1000001145
 c177: u_a8 - u_a7 - 1121 y_a7_proc_0 >= -999998853
 c178: u_a7 - u_a8 - 976 y_a8_proc_0 >= 999998852
 c179: u_a9 - u_a7 - 1121 y_a7_proc_0 >= 1147
 c180: u_a9 - u_a7 - 789 y_a7_proc_2 >= -1143
 c181: u_a7 - u_a9 - 543 y_a9_proc_0 >= -1148
 c182: u_a7 - u_a9 - 1145 y_a9_proc_2 >= -3438
 c183: u_a9 - u_a8 - 976 y_a8_proc_0 >= 999999999
 c184: u_a8 - u_a9 - 543 y_a9_proc_0 >= -1000000000

Bounds
End
