benchmark/results/graph__10-1000-0.10-03_19/error_log/graph__10-1000-0.10-03_19_Quinton_Benders_primal_sub_ERRORLOG.txt
solution for: Quinton Benders_primal_sub
objective: 0.000223015
status: OPTIMAL_SOLUTION(2)
u_a1=999999999.448
u_a2=999999999.860
u_a3=999999999.665
u_a4=999998853.448
u_a5=1146.345
u_a6=1145.448
u_a7=999998852.860
u_a8=0.231
u_a9=1000000000.110
tau=0.000
y_a0_proc_2=0.000
y_a1_proc_2=0.000
y_a2_proc_2=0.000
y_a3_proc_0=0.000
y_a4_proc_1=0.000
y_a5_proc_2=0.000
y_a6_proc_0=0.000
y_a7_proc_0=0.000
y_a8_proc_0=0.000
y_a9_proc_0=0.000
